(set-logic HORN)
(declare-fun state (Int (Array Int Int) (Array Int Int) (Array Int Int) (Array Int Int) Int Int (Array Int Int) (Array Int Int) Int Int Int Int Int Int Int Int Int Int Int Int Int Int Int Int Int Int Int Int Int Int Int Int Int Int Int Int Int Int Int Int Int Int Int Int Int Int Int Int Int Int Int Int Int Bool Bool Bool Bool Bool Bool (Array Int Int)) Bool)
(assert (forall ((|A_48| Int) (|B_48| (Array Int Int)) (|C_48| (Array Int Int)) (|D_48| (Array Int Int)) (|E_48| (Array Int Int)) (|F_48| Int) (|G_48| Int) (|H_48| (Array Int Int)) (|I_48| (Array Int Int)) (|J_48| Int) (|K_48| Int) (|L_48| Int) (|M_48| Int) (|N_48| Int) (|O_48| Int) (|P_48| Int) (|Q_48| Int) (|R_48| Int) (|S_48| Int) (|T_48| Int) (|U_48| Int) (|V_48| Int) (|W_48| Int) (|X_48| Int) (|Y_48| Int) (|Z_48| Int) (|A1_48| Int) (|B1_48| Int) (|C1_48| Int) (|D1_48| Int) (|E1_48| Int) (|F1_48| Int) (|G1_48| Int) (|H1_48| Int) (|I1_48| Int) (|J1_48| Int) (|K1_48| Int) (|L1_48| Int) (|M1_48| Int) (|N1_48| Int) (|O1_48| Int) (|P1_48| Int) (|Q1_48| Int) (|R1_48| Int) (|S1_48| Int) (|T1_48| Int) (|U1_48| Int) (|V1_48| Int) (|W1_48| Int) (|X1_48| Int) (|Y1_48| Int) (|Z1_48| Int) (|A2_48| Int) (|B2_48| Int) (|D2_28| Bool) (|.loc.6| Bool) (|.loc.7| Bool) (|.loc.8| Bool) (|.loc.9| Bool) (|.loc.10| Bool) (|D2_0| (Array Int Int)) (|.x.2597| Int) (|.x.2595| (Array Int Int)) (|.x.2593| Int) (|.x.2591| (Array Int Int)) (|.x.2587| Int) (|.x.2589| (Array Int Int)) (|.x.2588| (Array Int Int)) (|C2_48| Bool) (|.x.2599| Int) (|.x.2600| Int) (|.x.2604| Int) (|.x.2605| Int) (|.x.2610| Int) (|.x.2611| Int) (|.x.2612| Int) (|.x.2613| Int) (|.x.2618| Int) (|.x.2620| Int) (|.x.2623| Int) (|.x.2626| Int) (|.x.2628| Int) (|.x.2631| Int) (|.x.2634| Int) (|.x.2635| Int) (|.x.2636| Int) (|.x.2637| Int) (|.loc.12| Bool) (|.x.2614| Int) (|.x.2602| Int) (|.x.2615| Int) (|.x.2638| Int) (|.loc.13| Bool) (|.loc.11| Bool) (|.x.2629| Int) (|.x.2624| Int) (|.x.2617| Int) (|.x.2590| (Array Int Int)) (|.x.2625| Int) (|.x.2630| Int) (|.loc.15| Bool) (|.loc.14| Bool) (|.x.2627| Int) (|.x.2616| Int) (|.x.2622| Int) (|.x.2621| Int) (|.x.2633| Int) (|.x.2619| Int) (|.x.2632| Int) (|.x.2608| Int) (|.x.2639| Int) (|.x.2609| Int) (|.x.2640| Int) (|.x.2606| Int) (|.x.2607| Int) (|.x.2603| Int) (|.x.2598| Int) (|.x.2601| Int) (|.x.2596| Int) (|.x.2592| Int) (|.x.2594| (Array Int Int)) (|.xtv.1| (Array Int Int))) (=> (and (and (and (and (and .loc.6 (not .loc.7)) (not .loc.8)) (not .loc.9)) (not .loc.10)) (and (and (and (and (and (= D_48 E_48) (not D2_28)) (= F_48 G_48)) (= J_48 K_48)) (= H_48 I_48)) (= B_48 C_48))) (state |A_48| |B_48| |C_48| |D_48| |E_48| |F_48| |G_48| |H_48| |I_48| |J_48| |K_48| |L_48| |M_48| |N_48| |O_48| |P_48| |Q_48| |R_48| |S_48| |T_48| |U_48| |V_48| |W_48| |X_48| |Y_48| |Z_48| |A1_48| |B1_48| |C1_48| |D1_48| |E1_48| |F1_48| |G1_48| |H1_48| |I1_48| |J1_48| |K1_48| |L1_48| |M1_48| |N1_48| |O1_48| |P1_48| |Q1_48| |R1_48| |S1_48| |T1_48| |U1_48| |V1_48| |W1_48| |X1_48| |Y1_48| |Z1_48| |A2_48| |B2_48| |D2_28| |.loc.6| |.loc.7| |.loc.8| |.loc.9| |.loc.10| |D2_0|))))
(assert (forall ((|A_48| Int) (|B_48| (Array Int Int)) (|C_48| (Array Int Int)) (|D_48| (Array Int Int)) (|E_48| (Array Int Int)) (|F_48| Int) (|G_48| Int) (|H_48| (Array Int Int)) (|I_48| (Array Int Int)) (|J_48| Int) (|K_48| Int) (|L_48| Int) (|M_48| Int) (|N_48| Int) (|O_48| Int) (|P_48| Int) (|Q_48| Int) (|R_48| Int) (|S_48| Int) (|T_48| Int) (|U_48| Int) (|V_48| Int) (|W_48| Int) (|X_48| Int) (|Y_48| Int) (|Z_48| Int) (|A1_48| Int) (|B1_48| Int) (|C1_48| Int) (|D1_48| Int) (|E1_48| Int) (|F1_48| Int) (|G1_48| Int) (|H1_48| Int) (|I1_48| Int) (|J1_48| Int) (|K1_48| Int) (|L1_48| Int) (|M1_48| Int) (|N1_48| Int) (|O1_48| Int) (|P1_48| Int) (|Q1_48| Int) (|R1_48| Int) (|S1_48| Int) (|T1_48| Int) (|U1_48| Int) (|V1_48| Int) (|W1_48| Int) (|X1_48| Int) (|Y1_48| Int) (|Z1_48| Int) (|A2_48| Int) (|B2_48| Int) (|D2_28| Bool) (|.loc.6| Bool) (|.loc.7| Bool) (|.loc.8| Bool) (|.loc.9| Bool) (|.loc.10| Bool) (|D2_0| (Array Int Int)) (|.x.2597| Int) (|.x.2595| (Array Int Int)) (|.x.2593| Int) (|.x.2591| (Array Int Int)) (|.x.2587| Int) (|.x.2589| (Array Int Int)) (|.x.2588| (Array Int Int)) (|C2_48| Bool) (|.x.2599| Int) (|.x.2600| Int) (|.x.2604| Int) (|.x.2605| Int) (|.x.2610| Int) (|.x.2611| Int) (|.x.2612| Int) (|.x.2613| Int) (|.x.2618| Int) (|.x.2620| Int) (|.x.2623| Int) (|.x.2626| Int) (|.x.2628| Int) (|.x.2631| Int) (|.x.2634| Int) (|.x.2635| Int) (|.x.2636| Int) (|.x.2637| Int) (|.loc.12| Bool) (|.x.2614| Int) (|.x.2602| Int) (|.x.2615| Int) (|.x.2638| Int) (|.loc.13| Bool) (|.loc.11| Bool) (|.x.2629| Int) (|.x.2624| Int) (|.x.2617| Int) (|.x.2590| (Array Int Int)) (|.x.2625| Int) (|.x.2630| Int) (|.loc.15| Bool) (|.loc.14| Bool) (|.x.2627| Int) (|.x.2616| Int) (|.x.2622| Int) (|.x.2621| Int) (|.x.2633| Int) (|.x.2619| Int) (|.x.2632| Int) (|.x.2608| Int) (|.x.2639| Int) (|.x.2609| Int) (|.x.2640| Int) (|.x.2606| Int) (|.x.2607| Int) (|.x.2603| Int) (|.x.2598| Int) (|.x.2601| Int) (|.x.2596| Int) (|.x.2592| Int) (|.x.2594| (Array Int Int)) (|.xtv.1| (Array Int Int))) (=> (and (state |A_48| |B_48| |C_48| |D_48| |E_48| |F_48| |G_48| |H_48| |I_48| |J_48| |K_48| |L_48| |M_48| |N_48| |O_48| |P_48| |Q_48| |R_48| |S_48| |T_48| |U_48| |V_48| |W_48| |X_48| |Y_48| |Z_48| |A1_48| |B1_48| |C1_48| |D1_48| |E1_48| |F1_48| |G1_48| |H1_48| |I1_48| |J1_48| |K1_48| |L1_48| |M1_48| |N1_48| |O1_48| |P1_48| |Q1_48| |R1_48| |S1_48| |T1_48| |U1_48| |V1_48| |W1_48| |X1_48| |Y1_48| |Z1_48| |A2_48| |B2_48| |D2_28| |.loc.6| |.loc.7| |.loc.8| |.loc.9| |.loc.10| |D2_0|) (let ((.def_71 (not .loc.7))) (let ((.def_73 (not .loc.8))) (let ((.def_75 (not .loc.9))) (let ((.def_77 (not .loc.10))) (let ((.def_109 (= B_48 .x.2588))) (let ((.def_113 (= M_48 .x.2599))) (let ((.def_116 (= N_48 .x.2600))) (let ((.def_119 (= R_48 .x.2604))) (let ((.def_122 (= S_48 .x.2605))) (let ((.def_125 (= X_48 .x.2610))) (let ((.def_128 (= Y_48 .x.2611))) (let ((.def_131 (= Z_48 .x.2612))) (let ((.def_134 (= A1_48 .x.2613))) (let ((.def_137 (= F1_48 .x.2618))) (let ((.def_140 (= H1_48 .x.2620))) (let ((.def_143 (= K1_48 .x.2623))) (let ((.def_146 (= N1_48 .x.2626))) (let ((.def_149 (= P1_48 .x.2628))) (let ((.def_152 (= S1_48 .x.2631))) (let ((.def_155 (= V1_48 .x.2634))) (let ((.def_158 (= W1_48 .x.2635))) (let ((.def_161 (= X1_48 .x.2636))) (let ((.def_164 (= Y1_48 .x.2637))) (let ((.def_166 (not .loc.6))) (let ((.def_184 (= D2_28 C2_48))) (let ((.def_192 (= P_48 0))) (let ((.def_195 (and .def_116 (and .def_109 .def_113)))) (let ((.def_211 (and .def_164 (and .def_161 (and .def_158 (and .def_155 (and .def_152 (and .def_149 (and .def_146 (and .def_143 (and .def_140 (and .def_137 (and .def_134 (and .def_131 (and .def_128 (and .def_125 (and .def_122 (and .def_119 .def_195)))))))))))))))))) (let ((.def_215 (not .loc.12))) (let ((.def_221 (= B1_48 .x.2614))) (let ((.def_223 (= P_48 .x.2602))) (let ((.def_226 (= C1_48 .x.2615))) (let ((.def_229 (= Z1_48 .x.2638))) (let ((.def_234 (not .loc.11))) (let ((.def_241 (select D_48 W1_48))) (let ((.def_245 (select D_48 P1_48))) (let ((.def_250 (<= 100000 Q1_48))) (let ((.def_267 (not .loc.13))) (let ((.def_272 (= Q1_48 .x.2629))) (let ((.def_274 (= L1_48 .x.2624))) (let ((.def_285 (and .def_122 (and .def_119 (and .def_195 .def_223))))) (let ((.def_289 (and .def_134 (and .def_131 (and .def_128 (and .def_125 .def_285)))))) (let ((.def_314 (and .def_226 (and .def_221 .def_289)))) (let ((.def_320 (and .def_149 (and .def_146 (and .def_274 (and .def_143 (and .def_140 (and .def_137 .def_314)))))))) (let ((.def_337 (and D2_28 .def_109))) (let ((.def_361 (and .def_229 (and .def_164 (and .def_161 (and .def_158 (and .def_155 (and .def_152 (and .def_272 (and .def_149 (and .def_146 (and .def_274 (and .def_143 (and .def_140 (and .def_137 (and .def_226 (and .def_221 (and .def_134 (and .def_131 (and .def_128 (and .def_125 (and .def_122 (and .def_119 (and .def_223 (and .def_116 (and .def_113 .def_337)))))))))))))))))))))))))) (let ((.def_378 (and .def_229 (and .def_164 (and .def_161 (and .def_158 (and .def_155 (and .def_152 (and .def_272 .def_320))))))))) (let ((.def_400 (and .def_71 (and .def_166 (and .loc.10 .def_378))))) (let ((.def_406 (<= 100000 M1_48))) (let ((.def_407 (or D2_28 .def_406))) (let ((.def_411 (= E1_48 .x.2617))) (let ((.def_413 (= D_48 .x.2590))) (let ((.def_416 (= M1_48 .x.2625))) (let ((.def_419 (= R1_48 .x.2630))) (let ((.def_422 (* 4 M1_48))) (let ((.def_430 (not .def_406))) (let ((.def_441 (or C2_48 (= (+ M1_48 (* (- 1) .x.2625)) (- 1))))) (let ((.def_454 (and .def_122 (and .def_119 (and .def_223 (and .def_116 (and .def_113 (and .def_109 .def_413)))))))) (let ((.def_460 (and .def_226 (and .def_221 (and .def_134 (and .def_131 (and .def_128 (and .def_125 .def_454)))))))) (let ((.def_465 (and .def_274 (and .def_143 (and .def_140 (and .def_137 (and .def_411 .def_460))))))) (let ((.def_476 (and .def_229 (and .def_164 (and .def_161 (and .def_158 (and .def_155 (and .def_152 (and .def_419 (and .def_272 (and .def_149 (and .def_146 (and .def_416 .def_465))))))))))))) (let ((.def_485 (not .loc.15))) (let ((.def_494 (and .def_122 (and .def_119 (and .def_223 (and .def_116 (and .def_113 (and .def_337 .def_413)))))))) (let ((.def_500 (and .def_226 (and .def_221 (and .def_134 (and .def_131 (and .def_128 (and .def_125 .def_494)))))))) (let ((.def_516 (and .def_229 (and .def_164 (and .def_161 (and .def_158 (and .def_155 (and .def_152 (and .def_419 (and .def_272 (and .def_149 (and .def_146 (and .def_416 (and .def_274 (and .def_143 (and .def_140 (and .def_137 (and .def_411 .def_500)))))))))))))))))) (let ((.def_549 (or D2_28 (= .x.2625 0)))) (let ((.def_553 (not .loc.14))) (let ((.def_581 (= O1_48 .x.2627))) (let ((.def_583 (= D1_48 .x.2616))) (let ((.def_587 (select D_48 S_48))) (let ((.def_626 (and .def_137 (and .def_411 (and .def_460 .def_583))))) (let ((.def_627 (and .def_140 .def_626))) (let ((.def_629 (and .def_274 (and .def_143 .def_627)))) (let ((.def_656 (and .def_137 (and .def_411 (and .def_500 .def_583))))) (let ((.def_657 (and .def_140 .def_656))) (let ((.def_710 (= J1_48 .x.2622))) (let ((.def_712 (= I1_48 .x.2621))) (let ((.def_716 (select D_48 N1_48))) (let ((.def_725 (and .def_137 (and .def_411 (and .def_314 .def_583))))) (let ((.def_726 (and .def_140 .def_725))) (let ((.def_757 (and .def_274 (and .def_143 (and .def_710 (and .def_627 .def_712)))))) (let ((.def_836 (= U1_48 .x.2633))) (let ((.def_838 (= G1_48 .x.2619))) (let ((.def_842 (select D_48 A1_48))) (let ((.def_883 (and .def_274 (and .def_143 (and .def_710 (and .def_712 (and .def_140 (and .def_626 .def_838)))))))) (let ((.def_967 (= T1_48 .x.2632))) (let ((.def_969 (= V_48 .x.2608))) (let ((.def_973 (select D_48 N_48))) (let ((.def_1012 (and .def_454 .def_969))) (let ((.def_1027 (and .def_274 (and .def_143 (and .def_710 (and .def_712 (and .def_140 (and .def_838 (and .def_137 (and .def_411 (and .def_583 (and .def_226 (and .def_221 (and .def_134 (and .def_131 (and .def_128 (and .def_125 .def_1012))))))))))))))))) (let ((.def_1054 (and .def_494 .def_969))) (let ((.def_1124 (= A2_48 .x.2639))) (let ((.def_1126 (= W_48 .x.2609))) (let ((.def_1130 (select D_48 Z_48))) (let ((.def_1137 (and .def_285 .def_969))) (let ((.def_1195 (and .def_274 (and .def_143 (and .def_710 (and .def_712 (and .def_140 (and .def_838 (and .def_137 (and .def_411 (and .def_583 (and .def_226 (and .def_221 (and .def_134 (and .def_131 (and .def_128 (and .def_125 (and .def_1012 .def_1126)))))))))))))))))) (let ((.def_1295 (= B2_48 .x.2640))) (let ((.def_1297 (= T_48 .x.2606))) (let ((.def_1369 (and .def_274 (and .def_143 (and .def_710 (and .def_712 (and .def_140 (and .def_838 (and .def_137 (and .def_411 (and .def_583 (and .def_226 (and .def_221 (and .def_134 (and .def_131 (and .def_128 (and .def_125 (and .def_1126 (and .def_969 (and .def_454 .def_1297)))))))))))))))))))) (let ((.def_1444 (<= 100000 O_48))) (let ((.def_1492 (store D_48 P1_48 (store .def_245 (+ (* 4 O_48) S1_48) L_48)))) (let ((.def_1648 (store D2_0 .x.2628 1))) (let ((.def_1652 (store .def_1648 .x.2612 1))) (let ((.def_1656 (store .def_1652 .x.2600 1))) (let ((.def_1657 (store .def_1656 .x.2613 1))) (let ((.def_1658 (store .def_1657 .x.2626 1))) (let ((.def_1662 (store .def_1658 .x.2605 1))) (let ((.def_1663 (store .def_1662 .x.2618 1))) (and (and (= K_48 .x.2597) (and (= I_48 .x.2595) (and (= G_48 .x.2593) (and (= E_48 .x.2591) (and (= A_48 .x.2587) (= C_48 .x.2589)))))) (or (and (or (and (or (or (or (or (and (or (or (or (or (and (or (or (or (or (and (or (or (or (or (and (or (or (or (or (and (or (or (or (or (and (or (or (and (or (and .def_75 (or (or (and (or (and (or (or (or (or (or (or (and (or (and (or (and (or (and (and (and (and (and (and (and (and (and (and (and (and (and (and (and (and (and (and (and (and .def_109 C2_48) .def_113) .def_116) .def_119) .def_122) .def_125) .def_128) .def_131) .def_134) .def_137) .def_140) .def_143) .def_146) .def_149) .def_152) .def_155) .def_158) .def_161) .def_164) .def_166) (and (or D2_28 (and (= .x.2636 0) (= .x.2588 (store (store (store (store (store (store (store (store B_48 P1_48 0) Z_48 0) N_48 0) A1_48 0) N1_48 0) S_48 0) F1_48 0) W1_48 0)))) (and (and .loc.6 (or C2_48 (= .x.2636 .x.2637))) .def_184))) (and (and .loc.8 .def_71) .loc.12)) (and (or D2_28 .def_192) (and .def_73 (and (and .def_184 (and .loc.7 (and .loc.6 .def_211))) .def_215)))) (and (and (and (and (and .def_221 .def_223) .def_226) .def_229) .loc.13) .def_234)) (and (or D2_28 (and (= .x.2602 .x.2638) (and (= .x.2614 (select .def_241 (+ X_48 (* 4 Q1_48)))) (and (= .x.2615 (select .def_245 (+ (* 4 Q1_48) S1_48))) (and (not .def_250) (= .x.2638 (ite (= .x.2614 .x.2615) 1 0))))))) (and (and .def_73 (and .def_184 (and .loc.12 (and .loc.11 (and .def_166 (and .loc.7 .def_211)))))) .def_267))) (and .loc.10 (and .def_272 .def_274))) (and (or C2_48 (= (+ Q1_48 (* (- 1) .x.2629)) (- 1))) (and .def_77 (and .def_267 (and .def_73 (and .def_184 (and .def_234 (and .loc.12 (and .def_71 (and .def_166 (and .def_229 (and .def_164 (and .def_161 (and .def_158 (and .def_155 (and .def_152 (and .def_149 (and .def_146 (and .def_143 (and .def_140 (and .def_137 .def_289))))))))))))))))))))) (and (or D2_28 (= .x.2629 0)) (and .def_267 (and .def_73 (and .def_184 (and .def_234 (and .loc.12 (and .def_71 (and .loc.10 (and .loc.6 (and .def_229 (and .def_164 (and .def_161 (and .def_158 (and .def_155 (and .def_152 .def_320)))))))))))))))) (and .def_73 (and .def_215 (and .def_184 (and .loc.13 (and .loc.11 (and .def_166 (and .loc.10 (and .loc.7 .def_361))))))))) (and (or D2_28 .def_250) (and .def_73 (and .def_215 (and .def_184 (and .loc.13 (and .loc.11 (and .def_166 (and .loc.10 (and .loc.7 .def_378)))))))))) (and .def_267 (and .def_73 (and .def_215 (and .def_184 (and .loc.11 (and .def_71 (and .def_166 (and .loc.10 .def_361))))))))) (and (and .def_267 (and .def_73 (and .def_215 (and .def_184 (and .loc.11 .def_400))))) .def_407)) (and (and (and .def_411 .def_413) .def_416) .def_419)) (and (or D2_28 (and (= .x.2590 (store D_48 W1_48 (store .def_241 (+ X_48 .def_422) (select (select D_48 F1_48) (+ H1_48 .def_422))))) .def_430)) (and (and .def_267 (and .def_73 (and .def_215 (and .def_184 (and .def_234 .def_400))))) .def_441))) .loc.15) (and (or D2_28 (not .def_192)) (and (and .def_267 (and .def_73 (and .def_215 (and .def_184 (and .def_234 (and .loc.10 (and .loc.7 (and .loc.6 .def_476)))))))) .def_485))) (and .def_485 (and .def_267 (and .def_215 (and .def_184 (and .def_234 (and .def_71 (and .def_166 (and .loc.10 (and .loc.8 .def_516))))))))))) (and (and .def_77 (and .def_267 (and .def_215 (and .def_184 (and .def_234 (and .loc.15 (and .loc.9 (and .loc.8 (and .loc.7 (and .loc.6 (and .def_229 (and .def_164 (and .def_161 (and .def_158 (and .def_155 (and .def_152 (and .def_419 (and .def_272 (and .def_149 (and .def_146 .def_465)))))))))))))))))))) .def_549)) .def_553) (and .def_485 (and .def_77 (and .def_184 (and .loc.14 (and .loc.13 (and .loc.12 (and .loc.11 (and .def_166 (and .loc.9 (and .loc.8 (and .loc.7 .def_516)))))))))))) (and .def_485 (and .def_407 (and .def_77 (and .def_184 (and .loc.14 (and .loc.13 (and .loc.12 (and .loc.11 (and .def_166 (and .loc.9 (and .loc.8 (and .loc.7 .def_476))))))))))))) (and .def_581 .def_583)) (and (or D2_28 (and .def_430 (= .x.2590 (store D_48 W1_48 (store .def_241 (+ X_48 .def_422) (select .def_587 (+ .def_422 V1_48))))))) (and .def_485 (and .def_441 (and .def_77 (and .def_184 (and .def_234 (and .loc.14 (and .loc.13 (and .loc.12 (and .def_166 (and .loc.9 (and .loc.8 (and .loc.7 (and .def_229 (and .def_164 (and .def_161 (and .def_158 (and .def_155 (and .def_152 (and .def_419 (and .def_272 (and .def_149 (and .def_146 (and .def_274 (and .def_143 (and .def_140 (and .def_137 (and .def_314 .def_411))))))))))))))))))))))))))))) (and .def_549 (and .def_485 (and .def_77 (and .def_184 (and .def_234 (and .loc.14 (and .loc.13 (and .loc.12 (and .def_71 (and .loc.9 (and .loc.8 (and .loc.6 (and .def_229 (and .def_164 (and .def_161 (and .def_158 (and .def_155 (and .def_152 (and .def_419 (and .def_272 (and .def_149 (and .def_581 (and .def_146 .def_629)))))))))))))))))))))))) (and .def_485 (and .def_77 (and .def_215 (and .def_184 (and .loc.14 (and .loc.13 (and .loc.11 (and .def_71 (and .def_166 (and .loc.9 (and .loc.8 (and .def_229 (and .def_164 (and .def_161 (and .def_158 (and .def_155 (and .def_152 (and .def_419 (and .def_272 (and .def_149 (and .def_581 (and .def_146 (and .def_416 (and .def_274 (and .def_143 .def_657)))))))))))))))))))))))))) (and .def_485 (and .def_407 (and .def_77 (and .def_215 (and .def_184 (and .loc.14 (and .loc.13 (and .loc.11 (and .def_71 (and .def_166 (and .loc.9 (and .loc.8 (and .def_229 (and .def_164 (and .def_161 (and .def_158 (and .def_155 (and .def_152 (and .def_419 (and .def_272 (and .def_149 (and .def_581 (and .def_146 (and .def_416 .def_629))))))))))))))))))))))))) (and .def_710 .def_712)) (and (or D2_28 (and .def_430 (= .x.2590 (store D_48 S_48 (store .def_587 (+ .def_422 V1_48) (select .def_716 (+ R_48 .def_422))))))) (and .def_485 (and .def_441 (and .def_77 (and .def_215 (and .def_184 (and .def_234 (and .loc.14 (and .loc.13 (and .def_71 (and .def_166 (and .loc.9 (and .loc.8 (and .def_229 (and .def_164 (and .def_161 (and .def_158 (and .def_155 (and .def_152 (and .def_419 (and .def_272 (and .def_149 (and .def_581 (and .def_146 (and .def_274 (and .def_143 .def_726))))))))))))))))))))))))))) (and .def_549 (and .def_485 (and .def_77 (and .def_73 (and .def_215 (and .def_184 (and .def_234 (and .loc.14 (and .loc.13 (and .loc.9 (and .loc.7 (and .loc.6 (and .def_229 (and .def_164 (and .def_161 (and .def_158 (and .def_155 (and .def_152 (and .def_419 (and .def_272 (and .def_149 (and .def_581 (and .def_146 .def_757)))))))))))))))))))))))) (and .def_485 (and .def_77 (and .def_267 (and .def_73 (and .def_184 (and .loc.14 (and .loc.12 (and .loc.11 (and .def_166 (and .loc.9 (and .loc.7 (and .def_229 (and .def_164 (and .def_161 (and .def_158 (and .def_155 (and .def_152 (and .def_419 (and .def_272 (and .def_149 (and .def_581 (and .def_146 (and .def_416 (and .def_274 (and .def_143 (and .def_710 (and .def_657 .def_712)))))))))))))))))))))))))))) (and .def_485 (and .def_407 (and .def_77 (and .def_267 (and .def_73 (and .def_184 (and .loc.14 (and .loc.12 (and .loc.11 (and .def_166 (and .loc.9 (and .loc.7 (and .def_229 (and .def_164 (and .def_161 (and .def_158 (and .def_155 (and .def_152 (and .def_419 (and .def_272 (and .def_149 (and .def_581 (and .def_146 (and .def_416 .def_757))))))))))))))))))))))))) (and .def_836 .def_838)) (and (or D2_28 (and .def_430 (= .x.2590 (store D_48 N1_48 (store .def_716 (+ R_48 .def_422) (select .def_842 (+ K1_48 .def_422))))))) (and .def_485 (and .def_441 (and .def_77 (and .def_267 (and .def_73 (and .def_184 (and .def_234 (and .loc.14 (and .loc.12 (and .def_166 (and .loc.9 (and .loc.7 (and .def_229 (and .def_164 (and .def_161 (and .def_158 (and .def_155 (and .def_152 (and .def_419 (and .def_272 (and .def_149 (and .def_581 (and .def_146 (and .def_274 (and .def_143 (and .def_710 (and .def_712 .def_726))))))))))))))))))))))))))))) (and .def_549 (and .def_485 (and .def_77 (and .def_267 (and .def_73 (and .def_184 (and .def_234 (and .loc.14 (and .loc.12 (and .def_71 (and .loc.9 (and .loc.6 (and .def_229 (and .def_164 (and .def_161 (and .def_158 (and .def_155 (and .def_836 (and .def_152 (and .def_419 (and .def_272 (and .def_149 (and .def_581 (and .def_146 .def_883))))))))))))))))))))))))) (and .def_485 (and .def_77 (and .def_267 (and .def_73 (and .def_215 (and .def_184 (and .loc.14 (and .loc.11 (and .def_71 (and .def_166 (and .loc.9 (and .def_229 (and .def_164 (and .def_161 (and .def_158 (and .def_155 (and .def_836 (and .def_152 (and .def_419 (and .def_272 (and .def_149 (and .def_581 (and .def_146 (and .def_416 (and .def_274 (and .def_143 (and .def_710 (and .def_712 (and .def_140 (and .def_656 .def_838))))))))))))))))))))))))))))))) (and .def_485 (and .def_407 (and .def_77 (and .def_267 (and .def_73 (and .def_215 (and .def_184 (and .loc.14 (and .loc.11 (and .def_71 (and .def_166 (and .loc.9 (and .def_229 (and .def_164 (and .def_161 (and .def_158 (and .def_155 (and .def_836 (and .def_152 (and .def_419 (and .def_272 (and .def_149 (and .def_581 (and .def_146 (and .def_416 .def_883)))))))))))))))))))))))))) (and .def_967 .def_969)) (and (or D2_28 (and .def_430 (= .x.2590 (store D_48 A1_48 (store .def_842 (+ K1_48 .def_422) (select .def_973 (+ Y_48 .def_422))))))) (and .def_485 (and .def_441 (and .def_77 (and .def_267 (and .def_73 (and .def_215 (and .def_184 (and .def_234 (and .loc.14 (and .def_71 (and .def_166 (and .loc.9 (and .def_229 (and .def_164 (and .def_161 (and .def_158 (and .def_155 (and .def_836 (and .def_152 (and .def_419 (and .def_272 (and .def_149 (and .def_581 (and .def_146 (and .def_274 (and .def_143 (and .def_710 (and .def_712 (and .def_140 (and .def_725 .def_838)))))))))))))))))))))))))))))))) (and .def_549 (and .def_485 (and .def_77 (and .def_267 (and .def_215 (and .def_184 (and .def_234 (and .loc.14 (and .def_75 (and .loc.8 (and .loc.7 (and .loc.6 (and .def_229 (and .def_164 (and .def_161 (and .def_158 (and .def_155 (and .def_836 (and .def_967 (and .def_152 (and .def_419 (and .def_272 (and .def_149 (and .def_581 (and .def_146 .def_1027)))))))))))))))))))))))))) (and .def_485 (and .def_77 (and .def_184 (and .def_553 (and .loc.13 (and .loc.12 (and .loc.11 (and .def_75 (and .def_166 (and .loc.8 (and .loc.7 (and .def_229 (and .def_164 (and .def_161 (and .def_158 (and .def_155 (and .def_836 (and .def_967 (and .def_152 (and .def_419 (and .def_272 (and .def_149 (and .def_581 (and .def_146 (and .def_416 (and .def_274 (and .def_143 (and .def_710 (and .def_712 (and .def_140 (and .def_838 (and .def_137 (and .def_411 (and .def_583 (and .def_226 (and .def_221 (and .def_134 (and .def_131 (and .def_128 (and .def_125 .def_1054))))))))))))))))))))))))))))))))))))))))) (and .def_485 (and .def_407 (and .def_77 (and .def_184 (and .def_553 (and .loc.13 (and .loc.12 (and .loc.11 (and .def_75 (and .def_166 (and .loc.8 (and .loc.7 (and .def_229 (and .def_164 (and .def_161 (and .def_158 (and .def_155 (and .def_836 (and .def_967 (and .def_152 (and .def_419 (and .def_272 (and .def_149 (and .def_581 (and .def_146 (and .def_416 .def_1027))))))))))))))))))))))))))) (and .def_1124 .def_1126)) (and (or D2_28 (and .def_430 (= .x.2590 (store D_48 N_48 (store .def_973 (+ Y_48 .def_422) (select .def_1130 (+ M_48 .def_422))))))) (and .def_485 (and .def_441 (and .def_77 (and .def_184 (and .def_553 (and .def_234 (and .loc.13 (and .loc.12 (and .def_75 (and .def_166 (and .loc.8 (and .loc.7 (and .def_229 (and .def_164 (and .def_161 (and .def_158 (and .def_155 (and .def_836 (and .def_967 (and .def_152 (and .def_419 (and .def_272 (and .def_149 (and .def_581 (and .def_146 (and .def_274 (and .def_143 (and .def_710 (and .def_712 (and .def_140 (and .def_838 (and .def_137 (and .def_411 (and .def_583 (and .def_226 (and .def_221 (and .def_134 (and .def_131 (and .def_128 (and .def_125 .def_1137)))))))))))))))))))))))))))))))))))))))))) (and .def_549 (and .def_485 (and .def_77 (and .def_184 (and .def_553 (and .def_234 (and .loc.13 (and .loc.12 (and .def_75 (and .def_71 (and .loc.8 (and .loc.6 (and .def_1124 (and .def_229 (and .def_164 (and .def_161 (and .def_158 (and .def_155 (and .def_836 (and .def_967 (and .def_152 (and .def_419 (and .def_272 (and .def_149 (and .def_581 (and .def_146 .def_1195))))))))))))))))))))))))))) (and .def_485 (and .def_77 (and .def_215 (and .def_184 (and .def_553 (and .loc.13 (and .loc.11 (and .def_75 (and .def_71 (and .def_166 (and .loc.8 (and .def_1124 (and .def_229 (and .def_164 (and .def_161 (and .def_158 (and .def_155 (and .def_836 (and .def_967 (and .def_152 (and .def_419 (and .def_272 (and .def_149 (and .def_581 (and .def_146 (and .def_416 (and .def_274 (and .def_143 (and .def_710 (and .def_712 (and .def_140 (and .def_838 (and .def_137 (and .def_411 (and .def_583 (and .def_226 (and .def_221 (and .def_134 (and .def_131 (and .def_128 (and .def_125 (and .def_1054 .def_1126))))))))))))))))))))))))))))))))))))))))))) (and .def_485 (and .def_407 (and .def_77 (and .def_215 (and .def_184 (and .def_553 (and .loc.13 (and .loc.11 (and .def_75 (and .def_71 (and .def_166 (and .loc.8 (and .def_1124 (and .def_229 (and .def_164 (and .def_161 (and .def_158 (and .def_155 (and .def_836 (and .def_967 (and .def_152 (and .def_419 (and .def_272 (and .def_149 (and .def_581 (and .def_146 (and .def_416 .def_1195)))))))))))))))))))))))))))) (and .def_1295 .def_1297)) (and (or D2_28 (and .def_430 (= .x.2590 (store D_48 Z_48 (store .def_1130 (+ M_48 .def_422) (select .def_245 (+ .def_422 S1_48))))))) (and .def_485 (and .def_441 (and .def_77 (and .def_215 (and .def_184 (and .def_553 (and .def_234 (and .loc.13 (and .def_75 (and .def_71 (and .def_166 (and .loc.8 (and .def_1124 (and .def_229 (and .def_164 (and .def_161 (and .def_158 (and .def_155 (and .def_836 (and .def_967 (and .def_152 (and .def_419 (and .def_272 (and .def_149 (and .def_581 (and .def_146 (and .def_274 (and .def_143 (and .def_710 (and .def_712 (and .def_140 (and .def_838 (and .def_137 (and .def_411 (and .def_583 (and .def_226 (and .def_221 (and .def_134 (and .def_131 (and .def_128 (and .def_125 (and .def_1126 .def_1137)))))))))))))))))))))))))))))))))))))))))))) (and .def_549 (and .def_485 (and .def_77 (and .def_73 (and .def_215 (and .def_184 (and .def_553 (and .def_234 (and .loc.13 (and .def_75 (and .loc.7 (and .loc.6 (and .def_1295 (and .def_1124 (and .def_229 (and .def_164 (and .def_161 (and .def_158 (and .def_155 (and .def_836 (and .def_967 (and .def_152 (and .def_419 (and .def_272 (and .def_149 (and .def_581 (and .def_146 .def_1369)))))))))))))))))))))))))))) (and .def_485 (and .def_77 (and .def_267 (and .def_73 (and .def_184 (and .def_553 (and .loc.12 (and .loc.11 (and .def_75 (and .def_166 (and .loc.7 (and .def_1295 (and .def_1124 (and .def_229 (and .def_164 (and .def_161 (and .def_158 (and .def_155 (and .def_836 (and .def_967 (and .def_152 (and .def_419 (and .def_272 (and .def_149 (and .def_581 (and .def_146 (and .def_416 (and .def_274 (and .def_143 (and .def_710 (and .def_712 (and .def_140 (and .def_838 (and .def_137 (and .def_411 (and .def_583 (and .def_226 (and .def_221 (and .def_134 (and .def_131 (and .def_128 (and .def_125 (and .def_1126 (and .def_969 (and .def_494 .def_1297)))))))))))))))))))))))))))))))))))))))))))))) (and (or D2_28 .def_1444) (and .def_485 (and .def_77 (and .def_267 (and .def_73 (and .def_184 (and .def_553 (and .loc.12 (and .loc.11 (and .def_75 (and .def_166 (and .loc.7 (and .def_1295 (and .def_1124 (and .def_229 (and .def_164 (and .def_161 (and .def_158 (and .def_155 (and .def_836 (and .def_967 (and .def_152 (and .def_419 (and .def_272 (and .def_149 (and .def_581 (and .def_146 (and .def_416 .def_1369))))))))))))))))))))))))))))) (and (= U_48 .x.2607) (and (= Q_48 .x.2603) (and (= L_48 .x.2598) (= O_48 .x.2601))))) (and (or D2_28 (and (= .x.2590 (store .def_1492 F1_48 (store (select .def_1492 F1_48) (+ (* 4 O_48) H1_48) Q_48))) (and (<= (- 2147483648) Q_48) (and (<= (- 2147483648) L_48) (and (not .def_1444) (and (<= L_48 2147483647) (<= Q_48 2147483647))))))) (and (or C2_48 (= (+ O_48 (* (- 1) .x.2601)) (- 1))) (and .def_485 (and .def_77 (and .def_267 (and .def_73 (and .def_184 (and .def_553 (and .def_234 (and .loc.12 (and .def_75 (and .def_166 (and .loc.7 (and .def_1295 (and .def_1124 (and .def_229 (and .def_164 (and .def_161 (and .def_158 (and .def_155 (and .def_836 (and .def_967 (and .def_152 (and .def_419 (and .def_272 (and .def_149 (and .def_581 (and .def_146 (and .def_416 (and .def_274 (and .def_143 (and .def_710 (and .def_712 (and .def_140 (and .def_838 (and .def_137 (and .def_411 (and .def_583 (and .def_226 (and .def_221 (and .def_134 (and .def_131 (and .def_128 (and .def_125 (and .def_1126 (and .def_969 (and .def_285 .def_1297)))))))))))))))))))))))))))))))))))))))))))))))) (and (= J_48 .x.2596) (and (= F_48 .x.2592) (= H_48 .x.2594)))) (and (or D2_28 (and (and (= .x.2596 0) (= .x.2592 0)) (= D2_0 (store B_48 0 0)))) (and (or C2_48 (and (and (and (and (and (and (and (and (and (and (and (and (and (and (and (and (and (and (and (and (and (and (and (and (and (and (and (and (and (and (and (and (and (and (not (<= .x.2587 .x.2605)) (not (<= .x.2587 .x.2600))) (not (<= .x.2587 .x.2612))) (not (<= .x.2587 .x.2613))) (not (<= .x.2587 .x.2618))) (not (<= .x.2587 .x.2626))) (not (<= .x.2587 .x.2635))) (not (<= .x.2587 .x.2628))) (= .x.2599 0)) (= .x.2601 0)) (= .x.2604 0)) (not (= .x.2605 0))) (= .x.2610 0)) (= .x.2611 0)) (not (= .x.2613 0))) (not (= .x.2618 0))) (= .x.2620 0)) (= .x.2623 0)) (not (= .x.2626 0))) (= .x.2634 0)) (not (= .x.2635 0))) (= .x.2631 0)) (not (= .x.2600 0))) (not (= .x.2612 0))) (not (= .x.2628 0))) (= (select D2_0 .x.2628) 0)) (= (select .def_1648 .x.2612) 0)) (= (select .def_1652 .x.2600) 0)) (= (select .def_1658 .x.2605) 0)) (= (select .def_1663 .x.2635) 0)) (= (select .def_1656 .x.2613) 0)) (= (select .def_1657 .x.2626) 0)) (= (select .def_1662 .x.2618) 0)) (= .x.2594 (store (store (store (store (store (store (store (store H_48 .x.2628 400000) .x.2612 400000) .x.2600 400000) .x.2613 400000) .x.2626 400000) .x.2605 400000) .x.2618 400000) .x.2635 400000))) (= .x.2588 (store .def_1663 .x.2635 1)))) (and .def_485 (and .def_77 (and .def_267 (and .def_73 (and .def_184 (and .def_553 (and .def_234 (and .loc.12 (and .def_75 (and .def_71 (and .loc.6 (and .def_229 (and .def_164 (and .def_223 .def_413))))))))))))))))))))))))))))))))))))))))))))))))))))))))))))))))))))))))))))))))))))))))))))))))))))))))))))))))))))))))))))))) (state |.x.2587| |.x.2588| |.x.2589| |.x.2590| |.x.2591| |.x.2592| |.x.2593| |.x.2594| |.x.2595| |.x.2596| |.x.2597| |.x.2598| |.x.2599| |.x.2600| |.x.2601| |.x.2602| |.x.2603| |.x.2604| |.x.2605| |.x.2606| |.x.2607| |.x.2608| |.x.2609| |.x.2610| |.x.2611| |.x.2612| |.x.2613| |.x.2614| |.x.2615| |.x.2616| |.x.2617| |.x.2618| |.x.2619| |.x.2620| |.x.2621| |.x.2622| |.x.2623| |.x.2624| |.x.2625| |.x.2626| |.x.2627| |.x.2628| |.x.2629| |.x.2630| |.x.2631| |.x.2632| |.x.2633| |.x.2634| |.x.2635| |.x.2636| |.x.2637| |.x.2638| |.x.2639| |.x.2640| |C2_48| |.loc.11| |.loc.12| |.loc.13| |.loc.14| |.loc.15| |.xtv.1|))))
(assert (forall ((|A_48| Int) (|B_48| (Array Int Int)) (|C_48| (Array Int Int)) (|D_48| (Array Int Int)) (|E_48| (Array Int Int)) (|F_48| Int) (|G_48| Int) (|H_48| (Array Int Int)) (|I_48| (Array Int Int)) (|J_48| Int) (|K_48| Int) (|L_48| Int) (|M_48| Int) (|N_48| Int) (|O_48| Int) (|P_48| Int) (|Q_48| Int) (|R_48| Int) (|S_48| Int) (|T_48| Int) (|U_48| Int) (|V_48| Int) (|W_48| Int) (|X_48| Int) (|Y_48| Int) (|Z_48| Int) (|A1_48| Int) (|B1_48| Int) (|C1_48| Int) (|D1_48| Int) (|E1_48| Int) (|F1_48| Int) (|G1_48| Int) (|H1_48| Int) (|I1_48| Int) (|J1_48| Int) (|K1_48| Int) (|L1_48| Int) (|M1_48| Int) (|N1_48| Int) (|O1_48| Int) (|P1_48| Int) (|Q1_48| Int) (|R1_48| Int) (|S1_48| Int) (|T1_48| Int) (|U1_48| Int) (|V1_48| Int) (|W1_48| Int) (|X1_48| Int) (|Y1_48| Int) (|Z1_48| Int) (|A2_48| Int) (|B2_48| Int) (|D2_28| Bool) (|.loc.6| Bool) (|.loc.7| Bool) (|.loc.8| Bool) (|.loc.9| Bool) (|.loc.10| Bool) (|D2_0| (Array Int Int)) (|.x.2597| Int) (|.x.2595| (Array Int Int)) (|.x.2593| Int) (|.x.2591| (Array Int Int)) (|.x.2587| Int) (|.x.2589| (Array Int Int)) (|.x.2588| (Array Int Int)) (|C2_48| Bool) (|.x.2599| Int) (|.x.2600| Int) (|.x.2604| Int) (|.x.2605| Int) (|.x.2610| Int) (|.x.2611| Int) (|.x.2612| Int) (|.x.2613| Int) (|.x.2618| Int) (|.x.2620| Int) (|.x.2623| Int) (|.x.2626| Int) (|.x.2628| Int) (|.x.2631| Int) (|.x.2634| Int) (|.x.2635| Int) (|.x.2636| Int) (|.x.2637| Int) (|.loc.12| Bool) (|.x.2614| Int) (|.x.2602| Int) (|.x.2615| Int) (|.x.2638| Int) (|.loc.13| Bool) (|.loc.11| Bool) (|.x.2629| Int) (|.x.2624| Int) (|.x.2617| Int) (|.x.2590| (Array Int Int)) (|.x.2625| Int) (|.x.2630| Int) (|.loc.15| Bool) (|.loc.14| Bool) (|.x.2627| Int) (|.x.2616| Int) (|.x.2622| Int) (|.x.2621| Int) (|.x.2633| Int) (|.x.2619| Int) (|.x.2632| Int) (|.x.2608| Int) (|.x.2639| Int) (|.x.2609| Int) (|.x.2640| Int) (|.x.2606| Int) (|.x.2607| Int) (|.x.2603| Int) (|.x.2598| Int) (|.x.2601| Int) (|.x.2596| Int) (|.x.2592| Int) (|.x.2594| (Array Int Int)) (|.xtv.1| (Array Int Int))) (=> (state |A_48| |B_48| |C_48| |D_48| |E_48| |F_48| |G_48| |H_48| |I_48| |J_48| |K_48| |L_48| |M_48| |N_48| |O_48| |P_48| |Q_48| |R_48| |S_48| |T_48| |U_48| |V_48| |W_48| |X_48| |Y_48| |Z_48| |A1_48| |B1_48| |C1_48| |D1_48| |E1_48| |F1_48| |G1_48| |H1_48| |I1_48| |J1_48| |K1_48| |L1_48| |M1_48| |N1_48| |O1_48| |P1_48| |Q1_48| |R1_48| |S1_48| |T1_48| |U1_48| |V1_48| |W1_48| |X1_48| |Y1_48| |Z1_48| |A2_48| |B2_48| |D2_28| |.loc.6| |.loc.7| |.loc.8| |.loc.9| |.loc.10| |D2_0|) (not (and D2_28 (and .loc.10 (and (not .loc.9) (and .loc.8 (and .loc.7 (not .loc.6))))))))))
(check-sat)
